problems/csplib-prob056/sonet-models/noch/O2/lingeling/model_7_1-s3ring14-solution000001.eprime-solution
language ESSENCE' 1.0

letting network_ExplicitWithRepetitionR5_Flag be 7
letting network_ExplicitWithRepetitionR5_Values_ExplicitVarSizeWithMarker_Marker be
        [0, 0, 4, 4, 5, 5, 5, 0, 0, 0, 0, 0, 0, 0, 0, 0, 0, 0, 0, 0, 0, 0, 0, 0, 0, 0, 0, 0, 0, 0, 0, 0, 0, 0, 0, 0, 0,
         0, 0, 0, 0, 0, 0, 0, 0, 0, 0, 0, 0; int(1..49)]
letting network_ExplicitWithRepetitionR5_Values_ExplicitVarSizeWithMarker_Values be
        [[1, 1, 1, 1, 1; int(1..5)], [1, 1, 1, 1, 1; int(1..5)], [1, 2, 4, 13, 1; int(1..5)],
         [4, 6, 7, 12, 1; int(1..5)], [1, 9, 10, 11, 12; int(1..5)], [2, 3, 5, 7, 10; int(1..5)],
         [3, 5, 6, 8, 11; int(1..5)], [1, 1, 1, 1, 1; int(1..5)], [1, 1, 1, 1, 1; int(1..5)],
         [1, 1, 1, 1, 1; int(1..5)], [1, 1, 1, 1, 1; int(1..5)], [1, 1, 1, 1, 1; int(1..5)], [1, 1, 1, 1, 1; int(1..5)],
         [1, 1, 1, 1, 1; int(1..5)], [1, 1, 1, 1, 1; int(1..5)], [1, 1, 1, 1, 1; int(1..5)], [1, 1, 1, 1, 1; int(1..5)],
         [1, 1, 1, 1, 1; int(1..5)], [1, 1, 1, 1, 1; int(1..5)], [1, 1, 1, 1, 1; int(1..5)], [1, 1, 1, 1, 1; int(1..5)],
         [1, 1, 1, 1, 1; int(1..5)], [1, 1, 1, 1, 1; int(1..5)], [1, 1, 1, 1, 1; int(1..5)], [1, 1, 1, 1, 1; int(1..5)],
         [1, 1, 1, 1, 1; int(1..5)], [1, 1, 1, 1, 1; int(1..5)], [1, 1, 1, 1, 1; int(1..5)], [1, 1, 1, 1, 1; int(1..5)],
         [1, 1, 1, 1, 1; int(1..5)], [1, 1, 1, 1, 1; int(1..5)], [1, 1, 1, 1, 1; int(1..5)], [1, 1, 1, 1, 1; int(1..5)],
         [1, 1, 1, 1, 1; int(1..5)], [1, 1, 1, 1, 1; int(1..5)], [1, 1, 1, 1, 1; int(1..5)], [1, 1, 1, 1, 1; int(1..5)],
         [1, 1, 1, 1, 1; int(1..5)], [1, 1, 1, 1, 1; int(1..5)], [1, 1, 1, 1, 1; int(1..5)], [1, 1, 1, 1, 1; int(1..5)],
         [1, 1, 1, 1, 1; int(1..5)], [1, 1, 1, 1, 1; int(1..5)], [1, 1, 1, 1, 1; int(1..5)], [1, 1, 1, 1, 1; int(1..5)],
         [1, 1, 1, 1, 1; int(1..5)], [1, 1, 1, 1, 1; int(1..5)], [1, 1, 1, 1, 1; int(1..5)],
         [1, 1, 1, 1, 1; int(1..5)]; int(1..49)]
