problems/csplib-prob056/sonet-models/noch/O2/lingeling/model_7_1-s3ring14-solution000001.solution
language Essence 1.3

letting network be mset({}, {}, {1, 2, 4, 13}, {1, 9, 10, 11, 12}, {2, 3, 5, 7, 10}, {3, 5, 6, 8, 11}, {4, 6, 7, 12})
$ Here is a simple "visualisation" for the value above.
$ 
$ 
$  1  2  4 13
$  1  9 10 11 12
$  2  3  5  7 10
$  3  5  6  8 11
$  4  6  7 12

